NAME 
OBJSENSE MAX
ROWS
 N  OBJ
 L  packing[0]
 L  packing[1]
 L  packing[2]
 L  packing[3]
 L  packing[4]
 L  packing[5]
 L  packing[6]
 L  packing[7]
 L  packing[8]
 L  packing[9]
 L  packing[10]
 L  packing[11]
 L  packing[12]
 L  packing[13]
 L  packing[14]
 L  packing[15]
 L  packing[16]
 L  packing[17]
 L  packing[18]
 L  packing[19]
 L  packing[20]
 L  packing[21]
 L  packing[22]
 L  packing[23]
 L  packing[24]
 L  packing[25]
 L  packing[26]
 L  packing[27]
 L  packing[28]
 L  packing[29]
 L  packing[30]
 L  packing[31]
 L  packing[32]
 L  packing[33]
 L  packing[34]
 L  packing[35]
 L  packing[36]
 L  packing[37]
 L  packing[38]
 L  packing[39]
 L  packing[40]
 L  packing[41]
 L  packing[42]
 L  packing[43]
 L  packing[44]
 L  packing[45]
 L  packing[46]
 L  packing[47]
 L  packing[48]
 L  packing[49]
COLUMNS
    MARKER    'MARKER'                 'INTORG'
    x[1]      OBJ       175
    x[1]      packing[2]  57
    x[1]      packing[3]  103
    x[1]      packing[4]  4
    x[1]      packing[6]  171
    x[1]      packing[7]  28
    x[1]      packing[10]  155
    x[1]      packing[11]  34
    x[1]      packing[12]  103
    x[1]      packing[14]  142
    x[1]      packing[15]  69
    x[1]      packing[16]  137
    x[1]      packing[17]  22
    x[1]      packing[19]  101
    x[1]      packing[20]  16
    x[1]      packing[21]  98
    x[1]      packing[22]  83
    x[1]      packing[23]  19
    x[1]      packing[24]  70
    x[1]      packing[25]  134
    x[1]      packing[26]  172
    x[1]      packing[27]  169
    x[1]      packing[30]  61
    x[1]      packing[31]  89
    x[1]      packing[32]  126
    x[1]      packing[33]  109
    x[1]      packing[34]  95
    x[1]      packing[35]  105
    x[1]      packing[37]  97
    x[1]      packing[38]  46
    x[1]      packing[39]  186
    x[1]      packing[40]  71
    x[1]      packing[41]  194
    x[1]      packing[44]  132
    x[1]      packing[45]  18
    x[1]      packing[46]  192
    x[1]      packing[47]  134
    x[1]      packing[48]  49
    x[1]      packing[49]  48
    x[2]      OBJ       56
    x[2]      packing[0]  98
    x[2]      packing[1]  176
    x[2]      packing[2]  94
    x[2]      packing[4]  91
    x[2]      packing[5]  65
    x[2]      packing[7]  139
    x[2]      packing[8]  110
    x[2]      packing[10]  197
    x[2]      packing[11]  72
    x[2]      packing[12]  165
    x[2]      packing[13]  177
    x[2]      packing[15]  50
    x[2]      packing[16]  114
    x[2]      packing[17]  67
    x[2]      packing[20]  173
    x[2]      packing[21]  71
    x[2]      packing[22]  126
    x[2]      packing[23]  127
    x[2]      packing[24]  3
    x[2]      packing[25]  186
    x[2]      packing[26]  61
    x[2]      packing[27]  179
    x[2]      packing[29]  85
    x[2]      packing[30]  161
    x[2]      packing[32]  102
    x[2]      packing[33]  90
    x[2]      packing[35]  9
    x[2]      packing[36]  184
    x[2]      packing[38]  83
    x[2]      packing[41]  28
    x[2]      packing[42]  75
    x[2]      packing[43]  48
    x[2]      packing[45]  57
    x[2]      packing[46]  151
    x[2]      packing[47]  97
    x[2]      packing[48]  42
    x[2]      packing[49]  68
    x[3]      OBJ       104
    x[3]      packing[1]  136
    x[3]      packing[2]  167
    x[3]      packing[4]  99
    x[3]      packing[5]  82
    x[3]      packing[8]  171
    x[3]      packing[9]  34
    x[3]      packing[10]  133
    x[3]      packing[11]  57
    x[3]      packing[12]  7
    x[3]      packing[13]  11
    x[3]      packing[14]  143
    x[3]      packing[17]  48
    x[3]      packing[18]  13
    x[3]      packing[19]  170
    x[3]      packing[20]  188
    x[3]      packing[21]  44
    x[3]      packing[24]  98
    x[3]      packing[25]  18
    x[3]      packing[26]  195
    x[3]      packing[28]  182
    x[3]      packing[30]  56
    x[3]      packing[31]  154
    x[3]      packing[32]  128
    x[3]      packing[33]  20
    x[3]      packing[34]  192
    x[3]      packing[35]  62
    x[3]      packing[36]  141
    x[3]      packing[37]  76
    x[3]      packing[38]  68
    x[3]      packing[39]  178
    x[3]      packing[40]  190
    x[3]      packing[41]  125
    x[3]      packing[42]  111
    x[3]      packing[43]  26
    x[3]      packing[44]  150
    x[3]      packing[45]  90
    x[3]      packing[47]  138
    x[3]      packing[48]  61
    x[3]      packing[49]  71
    x[4]      OBJ       28
    x[4]      packing[1]  70
    x[4]      packing[2]  111
    x[4]      packing[5]  97
    x[4]      packing[10]  109
    x[4]      packing[12]  68
    x[4]      packing[13]  62
    x[4]      packing[14]  1
    x[4]      packing[15]  139
    x[4]      packing[16]  168
    x[4]      packing[17]  8
    x[4]      packing[18]  141
    x[4]      packing[19]  98
    x[4]      packing[21]  88
    x[4]      packing[22]  55
    x[4]      packing[23]  26
    x[4]      packing[25]  114
    x[4]      packing[28]  158
    x[4]      packing[29]  93
    x[4]      packing[32]  197
    x[4]      packing[33]  33
    x[4]      packing[34]  163
    x[4]      packing[36]  96
    x[4]      packing[37]  19
    x[4]      packing[38]  121
    x[4]      packing[39]  145
    x[4]      packing[41]  66
    x[4]      packing[43]  77
    x[4]      packing[44]  84
    x[4]      packing[45]  110
    x[4]      packing[46]  17
    x[4]      packing[47]  53
    x[4]      packing[48]  51
    x[5]      OBJ       167
    x[5]      packing[0]  59
    x[5]      packing[1]  134
    x[5]      packing[2]  45
    x[5]      packing[3]  198
    x[5]      packing[4]  20
    x[5]      packing[5]  112
    x[5]      packing[6]  99
    x[5]      packing[7]  54
    x[5]      packing[8]  63
    x[5]      packing[9]  65
    x[5]      packing[10]  97
    x[5]      packing[11]  134
    x[5]      packing[12]  17
    x[5]      packing[13]  26
    x[5]      packing[16]  72
    x[5]      packing[17]  130
    x[5]      packing[18]  59
    x[5]      packing[19]  31
    x[5]      packing[20]  21
    x[5]      packing[21]  172
    x[5]      packing[22]  49
    x[5]      packing[23]  164
    x[5]      packing[24]  156
    x[5]      packing[25]  38
    x[5]      packing[26]  103
    x[5]      packing[27]  57
    x[5]      packing[28]  68
    x[5]      packing[29]  199
    x[5]      packing[30]  114
    x[5]      packing[31]  150
    x[5]      packing[32]  53
    x[5]      packing[33]  1
    x[5]      packing[34]  8
    x[5]      packing[36]  192
    x[5]      packing[37]  119
    x[5]      packing[38]  184
    x[5]      packing[39]  59
    x[5]      packing[40]  95
    x[5]      packing[41]  63
    x[5]      packing[43]  35
    x[5]      packing[44]  7
    x[5]      packing[45]  2
    x[5]      packing[46]  121
    x[5]      packing[47]  173
    x[5]      packing[48]  147
    x[5]      packing[49]  6
    x[6]      OBJ       103
    x[6]      packing[1]  187
    x[6]      packing[2]  62
    x[6]      packing[3]  127
    x[6]      packing[7]  11
    x[6]      packing[8]  67
    x[6]      packing[10]  172
    x[6]      packing[11]  86
    x[6]      packing[12]  117
    x[6]      packing[13]  14
    x[6]      packing[15]  64
    x[6]      packing[16]  78
    x[6]      packing[18]  85
    x[6]      packing[20]  94
    x[6]      packing[21]  9
    x[6]      packing[23]  138
    x[6]      packing[24]  147
    x[6]      packing[25]  85
    x[6]      packing[26]  100
    x[6]      packing[27]  139
    x[6]      packing[28]  170
    x[6]      packing[29]  106
    x[6]      packing[30]  114
    x[6]      packing[31]  163
    x[6]      packing[32]  45
    x[6]      packing[33]  89
    x[6]      packing[35]  120
    x[6]      packing[36]  142
    x[6]      packing[37]  107
    x[6]      packing[39]  159
    x[6]      packing[40]  184
    x[6]      packing[41]  51
    x[6]      packing[42]  151
    x[6]      packing[43]  171
    x[6]      packing[44]  192
    x[6]      packing[45]  103
    x[6]      packing[46]  167
    x[6]      packing[48]  186
    x[7]      OBJ       128
    x[7]      packing[1]  125
    x[7]      packing[3]  9
    x[7]      packing[4]  91
    x[7]      packing[5]  145
    x[7]      packing[6]  121
    x[7]      packing[8]  19
    x[7]      packing[12]  168
    x[7]      packing[13]  73
    x[7]      packing[15]  64
    x[7]      packing[16]  18
    x[7]      packing[17]  29
    x[7]      packing[18]  113
    x[7]      packing[21]  69
    x[7]      packing[22]  153
    x[7]      packing[23]  135
    x[7]      packing[28]  34
    x[7]      packing[29]  39
    x[7]      packing[31]  189
    x[7]      packing[32]  181
    x[7]      packing[33]  177
    x[7]      packing[35]  132
    x[7]      packing[37]  140
    x[7]      packing[38]  91
    x[7]      packing[39]  13
    x[7]      packing[40]  117
    x[7]      packing[41]  121
    x[7]      packing[43]  4
    x[7]      packing[46]  3
    x[7]      packing[47]  10
    x[7]      packing[48]  72
    x[7]      packing[49]  19
    x[8]      OBJ       89
    x[8]      packing[0]  124
    x[8]      packing[1]  162
    x[8]      packing[2]  20
    x[8]      packing[5]  46
    x[8]      packing[6]  70
    x[8]      packing[7]  149
    x[8]      packing[8]  65
    x[8]      packing[10]  121
    x[8]      packing[11]  21
    x[8]      packing[12]  112
    x[8]      packing[13]  186
    x[8]      packing[14]  121
    x[8]      packing[15]  22
    x[8]      packing[17]  168
    x[8]      packing[18]  77
    x[8]      packing[20]  92
    x[8]      packing[21]  123
    x[8]      packing[22]  121
    x[8]      packing[23]  186
    x[8]      packing[25]  105
    x[8]      packing[26]  74
    x[8]      packing[27]  6
    x[8]      packing[28]  141
    x[8]      packing[29]  24
    x[8]      packing[30]  100
    x[8]      packing[31]  161
    x[8]      packing[33]  39
    x[8]      packing[36]  96
    x[8]      packing[37]  28
    x[8]      packing[38]  162
    x[8]      packing[42]  146
    x[8]      packing[43]  66
    x[8]      packing[45]  76
    x[8]      packing[46]  114
    x[8]      packing[47]  84
    x[8]      packing[48]  6
    x[8]      packing[49]  182
    x[9]      OBJ       154
    x[9]      packing[0]  41
    x[9]      packing[1]  144
    x[9]      packing[2]  145
    x[9]      packing[3]  84
    x[9]      packing[4]  169
    x[9]      packing[5]  29
    x[9]      packing[6]  4
    x[9]      packing[7]  121
    x[9]      packing[10]  113
    x[9]      packing[11]  193
    x[9]      packing[12]  165
    x[9]      packing[13]  47
    x[9]      packing[15]  115
    x[9]      packing[19]  74
    x[9]      packing[22]  186
    x[9]      packing[23]  76
    x[9]      packing[24]  36
    x[9]      packing[25]  179
    x[9]      packing[26]  89
    x[9]      packing[27]  67
    x[9]      packing[28]  115
    x[9]      packing[29]  149
    x[9]      packing[30]  125
    x[9]      packing[33]  11
    x[9]      packing[34]  158
    x[9]      packing[35]  73
    x[9]      packing[37]  137
    x[9]      packing[38]  160
    x[9]      packing[40]  112
    x[9]      packing[41]  51
    x[9]      packing[42]  32
    x[9]      packing[43]  177
    x[9]      packing[44]  26
    x[9]      packing[45]  136
    x[9]      packing[47]  169
    x[10]     OBJ       130
    x[10]     packing[0]  124
    x[10]     packing[1]  66
    x[10]     packing[2]  107
    x[10]     packing[3]  76
    x[10]     packing[4]  26
    x[10]     packing[5]  91
    x[10]     packing[8]  125
    x[10]     packing[9]  49
    x[10]     packing[10]  31
    x[10]     packing[11]  7
    x[10]     packing[12]  59
    x[10]     packing[14]  102
    x[10]     packing[15]  22
    x[10]     packing[16]  93
    x[10]     packing[17]  39
    x[10]     packing[18]  112
    x[10]     packing[19]  88
    x[10]     packing[21]  28
    x[10]     packing[22]  143
    x[10]     packing[23]  23
    x[10]     packing[24]  42
    x[10]     packing[26]  150
    x[10]     packing[29]  99
    x[10]     packing[30]  85
    x[10]     packing[31]  91
    x[10]     packing[32]  66
    x[10]     packing[34]  164
    x[10]     packing[36]  169
    x[10]     packing[37]  43
    x[10]     packing[42]  41
    x[10]     packing[43]  85
    x[10]     packing[44]  5
    x[10]     packing[46]  151
    x[10]     packing[47]  134
    x[10]     packing[48]  102
    x[10]     packing[49]  71
    x[11]     OBJ       143
    x[11]     packing[0]  87
    x[11]     packing[1]  24
    x[11]     packing[3]  95
    x[11]     packing[4]  95
    x[11]     packing[5]  95
    x[11]     packing[6]  199
    x[11]     packing[7]  192
    x[11]     packing[9]  24
    x[11]     packing[11]  11
    x[11]     packing[12]  75
    x[11]     packing[16]  25
    x[11]     packing[17]  88
    x[11]     packing[19]  102
    x[11]     packing[20]  194
    x[11]     packing[22]  67
    x[11]     packing[24]  95
    x[11]     packing[25]  161
    x[11]     packing[26]  114
    x[11]     packing[28]  195
    x[11]     packing[29]  3
    x[11]     packing[30]  51
    x[11]     packing[31]  47
    x[11]     packing[32]  196
    x[11]     packing[33]  143
    x[11]     packing[34]  151
    x[11]     packing[35]  10
    x[11]     packing[37]  48
    x[11]     packing[39]  16
    x[11]     packing[40]  23
    x[11]     packing[41]  152
    x[11]     packing[43]  76
    x[11]     packing[44]  152
    x[11]     packing[45]  193
    x[11]     packing[46]  103
    x[11]     packing[47]  153
    x[11]     packing[49]  6
    x[12]     OBJ       163
    x[12]     packing[1]  119
    x[12]     packing[2]  166
    x[12]     packing[4]  75
    x[12]     packing[5]  15
    x[12]     packing[7]  51
    x[12]     packing[8]  191
    x[12]     packing[10]  81
    x[12]     packing[11]  37
    x[12]     packing[12]  8
    x[12]     packing[13]  11
    x[12]     packing[14]  100
    x[12]     packing[15]  52
    x[12]     packing[17]  181
    x[12]     packing[18]  145
    x[12]     packing[19]  16
    x[12]     packing[20]  97
    x[12]     packing[21]  181
    x[12]     packing[22]  177
    x[12]     packing[23]  170
    x[12]     packing[24]  6
    x[12]     packing[26]  197
    x[12]     packing[27]  199
    x[12]     packing[28]  65
    x[12]     packing[29]  7
    x[12]     packing[30]  199
    x[12]     packing[31]  108
    x[12]     packing[32]  49
    x[12]     packing[33]  69
    x[12]     packing[34]  197
    x[12]     packing[35]  81
    x[12]     packing[36]  178
    x[12]     packing[38]  15
    x[12]     packing[39]  31
    x[12]     packing[40]  170
    x[12]     packing[41]  16
    x[12]     packing[42]  158
    x[12]     packing[43]  130
    x[12]     packing[44]  7
    x[12]     packing[45]  117
    x[12]     packing[46]  85
    x[12]     packing[47]  35
    x[12]     packing[48]  52
    x[12]     packing[49]  185
    x[13]     OBJ       135
    x[13]     packing[0]  173
    x[13]     packing[2]  131
    x[13]     packing[3]  86
    x[13]     packing[4]  94
    x[13]     packing[5]  39
    x[13]     packing[6]  82
    x[13]     packing[7]  129
    x[13]     packing[8]  40
    x[13]     packing[10]  186
    x[13]     packing[11]  6
    x[13]     packing[13]  144
    x[13]     packing[14]  65
    x[13]     packing[15]  130
    x[13]     packing[16]  16
    x[13]     packing[17]  51
    x[13]     packing[18]  97
    x[13]     packing[19]  47
    x[13]     packing[21]  29
    x[13]     packing[23]  154
    x[13]     packing[28]  126
    x[13]     packing[29]  42
    x[13]     packing[31]  168
    x[13]     packing[32]  156
    x[13]     packing[33]  11
    x[13]     packing[34]  105
    x[13]     packing[35]  60
    x[13]     packing[36]  170
    x[13]     packing[38]  186
    x[13]     packing[39]  30
    x[13]     packing[40]  98
    x[13]     packing[42]  29
    x[13]     packing[44]  123
    x[13]     packing[45]  173
    x[13]     packing[46]  134
    x[13]     packing[48]  130
    x[13]     packing[49]  146
    x[14]     OBJ       74
    x[14]     packing[0]  15
    x[14]     packing[1]  89
    x[14]     packing[2]  10
    x[14]     packing[3]  38
    x[14]     packing[4]  145
    x[14]     packing[5]  177
    x[14]     packing[6]  38
    x[14]     packing[7]  108
    x[14]     packing[11]  17
    x[14]     packing[12]  63
    x[14]     packing[13]  185
    x[14]     packing[14]  181
    x[14]     packing[15]  74
    x[14]     packing[16]  54
    x[14]     packing[17]  195
    x[14]     packing[19]  106
    x[14]     packing[20]  35
    x[14]     packing[21]  188
    x[14]     packing[22]  185
    x[14]     packing[23]  91
    x[14]     packing[24]  169
    x[14]     packing[25]  131
    x[14]     packing[26]  141
    x[14]     packing[27]  53
    x[14]     packing[28]  26
    x[14]     packing[29]  79
    x[14]     packing[31]  34
    x[14]     packing[32]  196
    x[14]     packing[33]  73
    x[14]     packing[35]  155
    x[14]     packing[36]  194
    x[14]     packing[37]  18
    x[14]     packing[38]  54
    x[14]     packing[39]  19
    x[14]     packing[41]  137
    x[14]     packing[43]  1
    x[14]     packing[44]  186
    x[14]     packing[45]  192
    x[14]     packing[49]  41
    x[15]     OBJ       138
    x[15]     packing[0]  113
    x[15]     packing[1]  173
    x[15]     packing[2]  81
    x[15]     packing[3]  133
    x[15]     packing[4]  197
    x[15]     packing[5]  142
    x[15]     packing[7]  124
    x[15]     packing[8]  171
    x[15]     packing[9]  39
    x[15]     packing[10]  19
    x[15]     packing[11]  175
    x[15]     packing[13]  93
    x[15]     packing[14]  181
    x[15]     packing[15]  28
    x[15]     packing[16]  179
    x[15]     packing[17]  58
    x[15]     packing[18]  173
    x[15]     packing[20]  32
    x[15]     packing[21]  19
    x[15]     packing[23]  56
    x[15]     packing[24]  43
    x[15]     packing[25]  64
    x[15]     packing[26]  189
    x[15]     packing[27]  173
    x[15]     packing[28]  85
    x[15]     packing[29]  28
    x[15]     packing[30]  53
    x[15]     packing[31]  65
    x[15]     packing[32]  190
    x[15]     packing[33]  51
    x[15]     packing[34]  97
    x[15]     packing[36]  108
    x[15]     packing[37]  81
    x[15]     packing[38]  68
    x[15]     packing[39]  178
    x[15]     packing[40]  84
    x[15]     packing[42]  140
    x[15]     packing[43]  141
    x[15]     packing[44]  120
    x[15]     packing[45]  25
    x[15]     packing[47]  33
    x[15]     packing[48]  38
    x[15]     packing[49]  69
    x[16]     OBJ       72
    x[16]     packing[0]  8
    x[16]     packing[1]  72
    x[16]     packing[3]  148
    x[16]     packing[4]  166
    x[16]     packing[5]  141
    x[16]     packing[6]  152
    x[16]     packing[7]  44
    x[16]     packing[8]  192
    x[16]     packing[10]  54
    x[16]     packing[11]  5
    x[16]     packing[13]  112
    x[16]     packing[14]  94
    x[16]     packing[16]  23
    x[16]     packing[17]  171
    x[16]     packing[20]  155
    x[16]     packing[24]  71
    x[16]     packing[25]  185
    x[16]     packing[26]  132
    x[16]     packing[27]  58
    x[16]     packing[28]  39
    x[16]     packing[29]  190
    x[16]     packing[30]  79
    x[16]     packing[31]  142
    x[16]     packing[34]  140
    x[16]     packing[36]  139
    x[16]     packing[38]  14
    x[16]     packing[39]  29
    x[16]     packing[40]  52
    x[16]     packing[41]  69
    x[16]     packing[42]  190
    x[16]     packing[43]  146
    x[16]     packing[44]  112
    x[16]     packing[45]  132
    x[16]     packing[47]  11
    x[16]     packing[48]  148
    x[16]     packing[49]  189
    x[17]     OBJ       101
    x[17]     packing[0]  64
    x[17]     packing[1]  164
    x[17]     packing[2]  68
    x[17]     packing[3]  67
    x[17]     packing[5]  101
    x[17]     packing[6]  11
    x[17]     packing[7]  194
    x[17]     packing[8]  163
    x[17]     packing[11]  30
    x[17]     packing[12]  47
    x[17]     packing[13]  169
    x[17]     packing[16]  28
    x[17]     packing[17]  100
    x[17]     packing[18]  150
    x[17]     packing[19]  70
    x[17]     packing[20]  199
    x[17]     packing[21]  112
    x[17]     packing[22]  42
    x[17]     packing[23]  28
    x[17]     packing[24]  178
    x[17]     packing[25]  68
    x[17]     packing[27]  28
    x[17]     packing[28]  94
    x[17]     packing[29]  181
    x[17]     packing[30]  55
    x[17]     packing[31]  97
    x[17]     packing[32]  1
    x[17]     packing[33]  49
    x[17]     packing[36]  39
    x[17]     packing[37]  167
    x[17]     packing[38]  65
    x[17]     packing[39]  24
    x[17]     packing[41]  188
    x[17]     packing[42]  45
    x[17]     packing[43]  106
    x[17]     packing[44]  193
    x[17]     packing[45]  53
    x[17]     packing[46]  24
    x[17]     packing[47]  74
    x[17]     packing[48]  184
    x[17]     packing[49]  192
    x[18]     OBJ       151
    x[18]     packing[0]  18
    x[18]     packing[2]  36
    x[18]     packing[3]  184
    x[18]     packing[4]  66
    x[18]     packing[6]  84
    x[18]     packing[8]  54
    x[18]     packing[10]  73
    x[18]     packing[11]  13
    x[18]     packing[12]  95
    x[18]     packing[13]  125
    x[18]     packing[14]  74
    x[18]     packing[16]  35
    x[18]     packing[17]  140
    x[18]     packing[18]  117
    x[18]     packing[19]  13
    x[18]     packing[21]  156
    x[18]     packing[23]  143
    x[18]     packing[24]  59
    x[18]     packing[25]  28
    x[18]     packing[27]  90
    x[18]     packing[28]  195
    x[18]     packing[30]  169
    x[18]     packing[31]  57
    x[18]     packing[32]  142
    x[18]     packing[33]  167
    x[18]     packing[34]  102
    x[18]     packing[35]  71
    x[18]     packing[36]  68
    x[18]     packing[37]  108
    x[18]     packing[38]  138
    x[18]     packing[39]  64
    x[18]     packing[42]  39
    x[18]     packing[44]  131
    x[18]     packing[45]  25
    x[18]     packing[46]  117
    x[18]     packing[47]  169
    x[18]     packing[48]  115
    x[18]     packing[49]  177
    x[19]     OBJ       6
    x[19]     packing[0]  157
    x[19]     packing[1]  182
    x[19]     packing[2]  28
    x[19]     packing[3]  37
    x[19]     packing[4]  9
    x[19]     packing[6]  65
    x[19]     packing[7]  13
    x[19]     packing[8]  109
    x[19]     packing[9]  76
    x[19]     packing[10]  61
    x[19]     packing[12]  61
    x[19]     packing[13]  74
    x[19]     packing[14]  169
    x[19]     packing[15]  54
    x[19]     packing[16]  129
    x[19]     packing[17]  62
    x[19]     packing[18]  48
    x[19]     packing[19]  94
    x[19]     packing[21]  74
    x[19]     packing[23]  195
    x[19]     packing[24]  63
    x[19]     packing[26]  102
    x[19]     packing[27]  39
    x[19]     packing[29]  77
    x[19]     packing[30]  108
    x[19]     packing[33]  81
    x[19]     packing[34]  196
    x[19]     packing[36]  24
    x[19]     packing[38]  97
    x[19]     packing[41]  152
    x[19]     packing[42]  63
    x[19]     packing[43]  177
    x[19]     packing[44]  166
    x[19]     packing[45]  103
    x[19]     packing[46]  118
    x[19]     packing[47]  25
    x[19]     packing[48]  158
    x[20]     OBJ       73
    x[20]     packing[0]  70
    x[20]     packing[1]  96
    x[20]     packing[2]  38
    x[20]     packing[3]  23
    x[20]     packing[4]  145
    x[20]     packing[5]  182
    x[20]     packing[7]  12
    x[20]     packing[8]  24
    x[20]     packing[9]  47
    x[20]     packing[10]  96
    x[20]     packing[11]  166
    x[20]     packing[12]  158
    x[20]     packing[13]  107
    x[20]     packing[14]  113
    x[20]     packing[16]  33
    x[20]     packing[19]  25
    x[20]     packing[21]  125
    x[20]     packing[22]  142
    x[20]     packing[23]  134
    x[20]     packing[25]  111
    x[20]     packing[26]  6
    x[20]     packing[27]  36
    x[20]     packing[28]  83
    x[20]     packing[29]  5
    x[20]     packing[30]  196
    x[20]     packing[31]  128
    x[20]     packing[32]  106
    x[20]     packing[33]  143
    x[20]     packing[34]  169
    x[20]     packing[36]  118
    x[20]     packing[37]  70
    x[20]     packing[38]  94
    x[20]     packing[39]  65
    x[20]     packing[40]  16
    x[20]     packing[41]  175
    x[20]     packing[43]  30
    x[20]     packing[44]  135
    x[20]     packing[47]  99
    x[20]     packing[48]  83
    x[20]     packing[49]  88
    MARKER    'MARKER'                 'INTEND'
RHS
    RHS1      packing[0]  576
    RHS1      packing[1]  1060
    RHS1      packing[2]  683
    RHS1      packing[3]  704
    RHS1      packing[4]  746
    RHS1      packing[5]  780
    RHS1      packing[6]  548
    RHS1      packing[7]  685
    RHS1      packing[8]  782
    RHS1      packing[9]  167
    RHS1      packing[10]  849
    RHS1      packing[11]  532
    RHS1      packing[12]  744
    RHS1      packing[13]  808
    RHS1      packing[14]  743
    RHS1      packing[15]  442
    RHS1      packing[16]  601
    RHS1      packing[17]  779
    RHS1      packing[18]  665
    RHS1      packing[19]  518
    RHS1      packing[20]  648
    RHS1      packing[21]  793
    RHS1      packing[22]  765
    RHS1      packing[23]  933
    RHS1      packing[24]  618
    RHS1      packing[25]  804
    RHS1      packing[26]  913
    RHS1      packing[27]  647
    RHS1      packing[28]  888
    RHS1      packing[29]  703
    RHS1      packing[30]  863
    RHS1      packing[31]  922
    RHS1      packing[32]  967
    RHS1      packing[33]  678
    RHS1      packing[34]  969
    RHS1      packing[35]  439
    RHS1      packing[36]  1029
    RHS1      packing[37]  629
    RHS1      packing[38]  823
    RHS1      packing[39]  598
    RHS1      packing[40]  606
    RHS1      packing[41]  794
    RHS1      packing[42]  610
    RHS1      packing[43]  748
    RHS1      packing[44]  961
    RHS1      packing[45]  803
    RHS1      packing[46]  749
    RHS1      packing[47]  796
    RHS1      packing[48]  812
    RHS1      packing[49]  779
BOUNDS
 BV BND1      x[1]    
 BV BND1      x[2]    
 BV BND1      x[3]    
 BV BND1      x[4]    
 BV BND1      x[5]    
 BV BND1      x[6]    
 BV BND1      x[7]    
 BV BND1      x[8]    
 BV BND1      x[9]    
 BV BND1      x[10]   
 BV BND1      x[11]   
 BV BND1      x[12]   
 BV BND1      x[13]   
 BV BND1      x[14]   
 BV BND1      x[15]   
 BV BND1      x[16]   
 BV BND1      x[17]   
 BV BND1      x[18]   
 BV BND1      x[19]   
 BV BND1      x[20]   
ENDATA
